nj = 6;
nm = 4;
pidle =  [3 3 1 3];
Ops =  {<1 1 1 9 0 5 4> <1 2 2 11 0 1 4>
     <1 3 4 7 1 2 5>
     <2 1 1 19 0 5 3>
     <2 2 2 20 0 1 5>
     <2 3 4 13 1 2 4>
     <3 1 2 14 0 5 4>
     <3 2 3 20 0 2 5>
     <3 3 4 9 1 3 4>
     <4 1 2 14 0 5 3>
     <4 2 3 20 0 2 4>
     <4 3 4 9 1 3 4>
     <5 1 1 11 0 5 4>
     <5 2 3 16 0 1 3>
     <5 3 4 8 1 3 5>
     <6 1 1 10 0 5 5>
     <6 2 3 12 0 1 4>
     <6 3 4 10 1 3 4>};
